9 75 64 53 42 31 20 10 98 86 73 60 47 34 21 7 94 80 65 49 33 17 2 87 69 51 32 15 96 77 56 36 14 92 70 45 24 99 72 44 19 90 61 29 1 68 37 3 66 28 89 50 8 63 22 76 25 74 16 58 0 41 71 4 38 57 82 88 95 97 91 81 48 78 83 26 39 55 6 11 30 35 46 12 84 67 18 27 13 43 93 85 79 62 59 54 52 40 23 5 

